\ENCODING=ISO-8859-1
\Problem name: ILOG.CPLEX

Minimize
 obj: gamma_2_5_0 + gamma_2_5_1 + gamma_2_4_0 + gamma_2_4_1 + gamma_2_3_0
      + gamma_2_3_1 + gamma_2_2_0 + gamma_2_2_1 + gamma_2_1_0 + gamma_2_1_1
      + gamma_2_0_0 + gamma_2_0_1 + gamma_4_5_0 + gamma_4_5_1 + gamma_4_5_2
      + gamma_4_4_0 + gamma_4_4_1 + gamma_4_4_2 + gamma_4_3_0 + gamma_4_3_1
      + gamma_4_3_2 + gamma_4_2_0 + gamma_4_2_1 + gamma_4_2_2 + gamma_4_1_0
      + gamma_4_1_1 + gamma_4_1_2 + gamma_4_0_0 + gamma_4_0_1 + gamma_4_0_2
      + gamma_1_1_0 + gamma_1_1_1 + gamma_1_0_0 + gamma_1_0_1 + gamma_0_1_0
      + gamma_0_1_1 + gamma_0_0_0 + gamma_3_5_0 + gamma_3_5_1 + gamma_3_5_2
      + gamma_3_4_0 + gamma_3_4_1 + gamma_3_3_0 + gamma_3_3_1 + gamma_3_3_2
      + gamma_3_2_0 + gamma_3_2_1 + gamma_3_1_0 + gamma_3_1_1 + gamma_3_0_0
      + gamma_3_0_1 + gamma_2_5_2 + gamma_2_4_2 + gamma_2_3_2 + gamma_2_2_2
      + gamma_2_1_2 + gamma_2_0_2 + gamma_0_0_1 + gamma_3_4_2 + gamma_3_2_2
      + gamma_3_1_2 + gamma_3_0_2
Subject To
 C1_0#0:         s_2_5 + s_2_4 + s_2_3 + s_2_2 + s_2_1 + s_2_0  = 1
 C1_1#1:         s_4_5 + s_4_4 + s_4_3 + s_4_2 + s_4_1 + s_4_0  = 1
 C1_2#2:         s_1_1 + s_1_0  = 1
 C1_3#3:         s_0_1 + s_0_0  = 1
 C1_4#4:         s_3_5 + s_3_4 + s_3_3 + s_3_2 + s_3_1 + s_3_0  = 1
 _2_0_0_0_1#5:   - 9.001 s_2_5 - g_0 + g_1 - g_2 + g_4 - g_6 + g_8 + g_10
                 - g_14 - g_17 + 9.001 gamma_2_5_0 >= -9
 _2_0_0_0_2#6:   - 6.001 s_2_5 + g_1 + g_4 - g_7 + g_8 + g_10 - g_22
                 + 6.001 gamma_2_5_0 >= -6
 _2_0_0_0_3#7:   - 12.001 s_2_5 + g_1 - g_3 + g_4 - g_5 + g_8 + g_10 - g_15
                 - g_16 - g_18 - g_21 - g_23 - g_29 + 12.001 gamma_2_5_0 >= -12
 _2_0_0_0_4#8:   - 6.001 s_2_5 + g_1 + g_4 + g_8 + g_10 - g_25 - g_27
                 + 6.001 gamma_2_5_0 >= -6
 _2_0_0_1_1#9:   - 9.001 s_2_5 - g_0 - g_2 - g_6 - g_8 - g_9 - g_11 - g_14
                 - g_17 - g_30 + 9.001 gamma_2_5_1 >= -9
 _2_0_0_1_2#10:  - 5.001 s_2_5 - g_15 - g_18 - g_21 - g_23 - g_29
                 + 5.001 gamma_2_5_1 >= -5
 _2_0_0_1_3#11:  - 4.001 s_2_5 - g_1 - g_4 - g_25 - g_27 + 4.001 gamma_2_5_1
                 >= -4
 _2_0_1_0_1#12:  - 9.001 s_2_4 - g_0 + g_1 - g_2 + g_4 - g_6 + g_8 + g_10
                 - g_14 - g_17 + 9.001 gamma_2_4_0 >= -9
 _2_0_1_0_2#13:  - 6.001 s_2_4 + g_1 + g_4 - g_7 + g_8 + g_10 - g_22
                 + 6.001 gamma_2_4_0 >= -6
 _2_0_1_0_3#14:  - 12.001 s_2_4 + g_1 - g_3 + g_4 - g_5 + g_8 + g_10 - g_15
                 - g_16 - g_18 - g_21 - g_23 - g_29 + 12.001 gamma_2_4_0 >= -12
 _2_0_1_0_4#15:  - 6.001 s_2_4 + g_1 + g_4 + g_8 + g_10 - g_25 - g_27
                 + 6.001 gamma_2_4_0 >= -6
 _2_0_1_1_1#16:  - 9.001 s_2_4 + g_0 + g_2 + g_6 + g_8 + g_9 + g_11 + g_14
                 + g_17 + g_30 + 9.001 gamma_2_4_1 >= -9
 _2_0_1_1_2#17:  - 14.001 s_2_4 + g_0 + g_2 + g_6 + g_8 + g_9 + g_11 + g_14
                 - g_15 + g_17 - g_18 - g_21 - g_23 - g_29 + g_30
                 + 14.001 gamma_2_4_1 >= -14
 _2_0_1_1_3#18:  - 13.001 s_2_4 + g_0 - g_1 + g_2 - g_4 + g_6 + g_8 + g_9
                 + g_11 + g_14 + g_17 - g_25 - g_27 + g_30 + 13.001 gamma_2_4_1
                 >= -13
 _2_0_2_0_1#19:  - 7.001 s_2_3 - g_0 - g_2 - g_6 + g_7 - g_14 - g_17 + g_22
                 + 7.001 gamma_2_3_0 >= -7
 _2_0_2_0_2#20:  - 10.001 s_2_3 - g_3 - g_5 + g_7 - g_15 - g_16 - g_18 - g_21
                 + g_22 - g_23 - g_29 + 10.001 gamma_2_3_0 >= -10
 _2_0_2_0_3#21:  - 6.001 s_2_3 - g_1 - g_4 + g_7 - g_8 - g_10 + g_22
                 + 6.001 gamma_2_3_0 >= -6
 _2_0_2_0_4#22:  - 4.001 s_2_3 + g_7 + g_22 - g_25 - g_27 + 4.001 gamma_2_3_0
                 >= -4
 _2_0_2_1_1#23:  - 23.001 s_2_3 - g_0 + g_1 - g_2 - g_3 + g_4 - g_5 - g_6 + g_8
                 + g_10 - g_12 - g_14 - g_15 - g_16 - g_17 - g_18 - g_19 - g_20
                 - g_21 - g_23 + g_25 + g_27 - g_29 - g_31 + 23.001 gamma_2_3_1
                 >= -23
 _2_0_3_0_1#24:  - 7.001 s_2_2 - g_0 - g_2 - g_6 + g_7 - g_14 - g_17 + g_22
                 + 7.001 gamma_2_2_0 >= -7
 _2_0_3_0_2#25:  - 10.001 s_2_2 - g_3 - g_5 + g_7 - g_15 - g_16 - g_18 - g_21
                 + g_22 - g_23 - g_29 + 10.001 gamma_2_2_0 >= -10
 _2_0_3_0_3#26:  - 6.001 s_2_2 - g_1 - g_4 + g_7 - g_8 - g_10 + g_22
                 + 6.001 gamma_2_2_0 >= -6
 _2_0_3_0_4#27:  - 4.001 s_2_2 + g_7 + g_22 - g_25 - g_27 + 4.001 gamma_2_2_0
                 >= -4
 _2_0_3_1_1#28:  - 23.001 s_2_2 + g_0 - g_1 + g_2 + g_3 - g_4 + g_5 + g_6 - g_8
                 - g_10 + g_12 + g_14 + g_15 + g_16 + g_17 + g_18 + g_19 + g_20
                 + g_21 + g_23 - g_25 - g_27 + g_29 + g_31 + 23.001 gamma_2_2_1
                 >= -23
 _2_0_4_0_1#29:  - 7.001 s_2_1 + g_0 + g_2 + g_6 - g_7 + g_14 + g_17 - g_22
                 + 7.001 gamma_2_1_0 >= -7
 _2_0_4_0_2#30:  - 13.001 s_2_1 + g_0 + g_2 - g_3 - g_5 + g_6 + g_14 - g_15
                 - g_16 + g_17 - g_18 - g_21 - g_23 - g_29 + 13.001 gamma_2_1_0
                 >= -13
 _2_0_4_0_3#31:  - 9.001 s_2_1 + g_0 - g_1 + g_2 - g_4 + g_6 - g_8 - g_10
                 + g_14 + g_17 + 9.001 gamma_2_1_0 >= -9
 _2_0_4_0_4#32:  - 7.001 s_2_1 + g_0 + g_2 + g_6 + g_14 + g_17 - g_25 - g_27
                 + 7.001 gamma_2_1_0 >= -7
 _2_0_4_1_1#33:  - 13.001 s_2_1 + g_1 + g_4 - g_6 + g_8 + g_9 + g_10 + g_11
                 - g_12 - g_14 - g_17 - g_19 - g_20 + g_30 + 13.001 gamma_2_1_1
                 >= -13
 _2_0_4_1_2#34:  - 12.001 s_2_1 + g_1 + g_4 + g_8 + g_9 + g_10 + g_11 - g_15
                 - g_18 - g_21 - g_23 - g_29 + g_30 + 12.001 gamma_2_1_1 >= -12
 _2_0_4_1_3#35:  - 9.001 s_2_1 + g_1 + g_4 + g_8 + g_9 + g_10 + g_11 - g_25
                 - g_27 + g_30 + 9.001 gamma_2_1_1 >= -9
 _2_0_5_0_1#36:  - 7.001 s_2_0 + g_0 + g_2 + g_6 - g_7 + g_14 + g_17 - g_22
                 + 7.001 gamma_2_0_0 >= -7
 _2_0_5_0_2#37:  - 13.001 s_2_0 + g_0 + g_2 - g_3 - g_5 + g_6 + g_14 - g_15
                 - g_16 + g_17 - g_18 - g_21 - g_23 - g_29 + 13.001 gamma_2_0_0
                 >= -13
 _2_0_5_0_3#38:  - 9.001 s_2_0 + g_0 - g_1 + g_2 - g_4 + g_6 - g_8 - g_10
                 + g_14 + g_17 + 9.001 gamma_2_0_0 >= -9
 _2_0_5_0_4#39:  - 7.001 s_2_0 + g_0 + g_2 + g_6 + g_14 + g_17 - g_25 - g_27
                 + 7.001 gamma_2_0_0 >= -7
 _2_0_5_1_1#40:  - 11.001 s_2_0 + g_6 + g_12 + g_14 - g_15 + g_17 - g_18 + g_19
                 + g_20 - g_21 - g_23 - g_29 + 11.001 gamma_2_0_1 >= -11
 _2_0_5_1_2#41:  - 13.001 s_2_0 - g_1 - g_4 + g_6 - g_8 - g_9 - g_10 - g_11
                 + g_12 + g_14 + g_17 + g_19 + g_20 - g_30 + 13.001 gamma_2_0_1
                 >= -13
 _2_0_5_1_3#42:  - 8.001 s_2_0 + g_6 + g_12 + g_14 + g_17 + g_19 + g_20 - g_25
                 - g_27 + 8.001 gamma_2_0_1 >= -8
 _2_1_0_0_1#43:  - 5.001 s_4_5 - g_0 - g_2 - g_6 - g_14 - g_17
                 + 5.001 gamma_4_5_0 >= -5
 _2_1_0_0_2#44:  - 0.001 s_4_5 + 0.001 gamma_4_5_0 >= 0
 _2_1_0_0_3#45:  - 0.001 s_4_5 + 0.001 gamma_4_5_0 >= 0
 _2_1_0_0_4#46:  - 0.001 s_4_5 + 0.001 gamma_4_5_0 >= 0
 _2_1_0_0_5#47:  - 0.001 s_4_5 + 0.001 gamma_4_5_0 >= 0
 _2_1_0_0_6#48:  - 2.001 s_4_5 - g_25 - g_27 + 2.001 gamma_4_5_0 >= -2
 _2_1_0_1_1#49:  - 5.001 s_4_5 - g_0 - g_2 - g_6 - g_14 - g_17
                 + 5.001 gamma_4_5_1 >= -5
 _2_1_0_1_2#50:  - 0.001 s_4_5 + 0.001 gamma_4_5_1 >= 0
 _2_1_0_1_3#51:  - 0.001 s_4_5 + 0.001 gamma_4_5_1 >= 0
 _2_1_0_1_4#52:  - 2.001 s_4_5 - g_8 - g_10 + 2.001 gamma_4_5_1 >= -2
 _2_1_0_1_5#53:  - 4.001 s_4_5 - g_7 - g_22 - g_25 - g_27 + 4.001 gamma_4_5_1
                 >= -4
 _2_1_0_2_1#54:  - 17.001 s_4_5 + g_0 - g_1 + g_2 - g_4 - g_10 + g_12 + g_15
                 + g_17 + g_18 + g_19 + g_20 + g_21 + g_23 - g_25 - g_27 + g_29
                 + g_31 + 17.001 gamma_4_5_2 >= -17
 _2_1_1_0_1#55:  - 5.001 s_4_4 - g_0 - g_2 - g_6 - g_14 - g_17
                 + 5.001 gamma_4_4_0 >= -5
 _2_1_1_0_2#56:  - 0.001 s_4_4 + 0.001 gamma_4_4_0 >= 0
 _2_1_1_0_3#57:  - 0.001 s_4_4 + 0.001 gamma_4_4_0 >= 0
 _2_1_1_0_4#58:  - 0.001 s_4_4 + 0.001 gamma_4_4_0 >= 0
 _2_1_1_0_5#59:  - 0.001 s_4_4 + 0.001 gamma_4_4_0 >= 0
 _2_1_1_0_6#60:  - 2.001 s_4_4 - g_25 - g_27 + 2.001 gamma_4_4_0 >= -2
 _2_1_1_1_1#61:  - 5.001 s_4_4 + g_0 + g_2 + g_6 + g_14 + g_17
                 + 5.001 gamma_4_4_1 >= -5
 _2_1_1_1_2#62:  - 5.001 s_4_4 + g_0 + g_2 + g_6 + g_14 + g_17
                 + 5.001 gamma_4_4_1 >= -5
 _2_1_1_1_3#63:  - 5.001 s_4_4 + g_0 + g_2 + g_6 + g_14 + g_17
                 + 5.001 gamma_4_4_1 >= -5
 _2_1_1_1_4#64:  - 7.001 s_4_4 + g_0 + g_2 + g_6 - g_8 - g_10 + g_14 + g_17
                 + 7.001 gamma_4_4_1 >= -7
 _2_1_1_1_5#65:  - 9.001 s_4_4 + g_0 + g_2 + g_6 - g_7 + g_14 + g_17 - g_22
                 - g_25 - g_27 + 9.001 gamma_4_4_1 >= -9
 _2_1_1_2_1#66:  - 0.001 s_4_4 + 0.001 gamma_4_4_2 >= 0
 _2_1_1_2_2#67:  - 0.001 s_4_4 + 0.001 gamma_4_4_2 >= 0
 _2_1_1_2_3#68:  - 9.001 s_4_4 - g_0 - g_2 - g_6 - g_8 - g_9 - g_10 - g_11
                 - g_14 - g_30 + 9.001 gamma_4_4_2 >= -9
 _2_1_1_2_4#69:  - 2.001 s_4_4 - g_25 - g_27 + 2.001 gamma_4_4_2 >= -2
 _2_1_2_0_1#70:  - 5.001 s_4_3 - g_0 - g_2 - g_6 - g_14 - g_17
                 + 5.001 gamma_4_3_0 >= -5
 _2_1_2_0_2#71:  - 0.001 s_4_3 + 0.001 gamma_4_3_0 >= 0
 _2_1_2_0_3#72:  - 0.001 s_4_3 + 0.001 gamma_4_3_0 >= 0
 _2_1_2_0_4#73:  - 0.001 s_4_3 + 0.001 gamma_4_3_0 >= 0
 _2_1_2_0_5#74:  - 0.001 s_4_3 + 0.001 gamma_4_3_0 >= 0
 _2_1_2_0_6#75:  - 2.001 s_4_3 - g_25 - g_27 + 2.001 gamma_4_3_0 >= -2
 _2_1_2_1_1#76:  - 14.001 s_4_3 - g_0 - g_2 - g_6 - g_12 - g_14 - g_15 - g_17
                 - g_18 - g_19 - g_20 - g_21 - g_23 - g_29 - g_31
                 + 14.001 gamma_4_3_1 >= -14
 _2_1_2_1_2#77:  - 0.001 s_4_3 + 0.001 gamma_4_3_1 >= 0
 _2_1_2_1_3#78:  - 8.001 s_4_3 - g_3 - g_5 - g_16 - g_24 - g_25 - g_26 - g_27
                 - g_32 + 8.001 gamma_4_3_1 >= -8
 _2_1_2_2_1#79:  - 17.001 s_4_3 + g_0 - g_1 + g_2 - g_4 - g_10 + g_12 + g_15
                 + g_17 + g_18 + g_19 + g_20 + g_21 + g_23 - g_25 - g_27 + g_29
                 + g_31 + 17.001 gamma_4_3_2 >= -17
 _2_1_3_0_1#80:  - 5.001 s_4_2 - g_0 - g_2 - g_6 - g_14 - g_17
                 + 5.001 gamma_4_2_0 >= -5
 _2_1_3_0_2#81:  - 0.001 s_4_2 + 0.001 gamma_4_2_0 >= 0
 _2_1_3_0_3#82:  - 0.001 s_4_2 + 0.001 gamma_4_2_0 >= 0
 _2_1_3_0_4#83:  - 0.001 s_4_2 + 0.001 gamma_4_2_0 >= 0
 _2_1_3_0_5#84:  - 0.001 s_4_2 + 0.001 gamma_4_2_0 >= 0
 _2_1_3_0_6#85:  - 2.001 s_4_2 - g_25 - g_27 + 2.001 gamma_4_2_0 >= -2
 _2_1_3_1_1#86:  - 14.001 s_4_2 + g_0 + g_2 + g_6 + g_12 + g_14 + g_15 + g_17
                 + g_18 + g_19 + g_20 + g_21 + g_23 + g_29 + g_31
                 + 14.001 gamma_4_2_1 >= -14
 _2_1_3_1_2#87:  - 14.001 s_4_2 + g_0 + g_2 + g_6 + g_12 + g_14 + g_15 + g_17
                 + g_18 + g_19 + g_20 + g_21 + g_23 + g_29 + g_31
                 + 14.001 gamma_4_2_1 >= -14
 _2_1_3_1_3#88:  - 22.001 s_4_2 + g_0 + g_2 - g_3 - g_5 + g_6 + g_12 + g_14
                 + g_15 - g_16 + g_17 + g_18 + g_19 + g_20 + g_21 + g_23 - g_24
                 - g_25 - g_26 - g_27 + g_29 + g_31 - g_32 + 22.001 gamma_4_2_1
                 >= -22
 _2_1_3_2_1#89:  - 0.001 s_4_2 + 0.001 gamma_4_2_2 >= 0
 _2_1_4_0_1#90:  - 5.001 s_4_1 + g_0 + g_2 + g_6 + g_14 + g_17
                 + 5.001 gamma_4_1_0 >= -5
 _2_1_4_0_2#91:  - 5.001 s_4_1 + g_0 + g_2 + g_6 + g_14 + g_17
                 + 5.001 gamma_4_1_0 >= -5
 _2_1_4_0_3#92:  - 5.001 s_4_1 + g_0 + g_2 + g_6 + g_14 + g_17
                 + 5.001 gamma_4_1_0 >= -5
 _2_1_4_0_4#93:  - 5.001 s_4_1 + g_0 + g_2 + g_6 + g_14 + g_17
                 + 5.001 gamma_4_1_0 >= -5
 _2_1_4_0_5#94:  - 5.001 s_4_1 + g_0 + g_2 + g_6 + g_14 + g_17
                 + 5.001 gamma_4_1_0 >= -5
 _2_1_4_0_6#95:  - 7.001 s_4_1 + g_0 + g_2 + g_6 + g_14 + g_17 - g_25 - g_27
                 + 7.001 gamma_4_1_0 >= -7
 _2_1_4_1_1#96:  - 0.001 s_4_1 + 0.001 gamma_4_1_1 >= 0
 _2_1_4_1_2#97:  - 0.001 s_4_1 + 0.001 gamma_4_1_1 >= 0
 _2_1_4_1_3#98:  - 0.001 s_4_1 + 0.001 gamma_4_1_1 >= 0
 _2_1_4_1_4#99:  - 0.001 s_4_1 + 0.001 gamma_4_1_1 >= 0
 _2_1_4_1_5#100: - 4.001 s_4_1 - g_7 - g_22 - g_25 - g_27 + 4.001 gamma_4_1_1
                 >= -4
 _2_1_4_2_1#101: - 0.001 s_4_1 + 0.001 gamma_4_1_2 >= 0
 _2_1_4_2_2#102: - 0.001 s_4_1 + 0.001 gamma_4_1_2 >= 0
 _2_1_4_2_3#103: - 9.001 s_4_1 - g_0 - g_2 - g_6 - g_8 - g_9 - g_10 - g_11
                 - g_14 - g_30 + 9.001 gamma_4_1_2 >= -9
 _2_1_4_2_4#104: - 2.001 s_4_1 - g_25 - g_27 + 2.001 gamma_4_1_2 >= -2
 _2_1_5_0_1#105: - 5.001 s_4_0 + g_0 + g_2 + g_6 + g_14 + g_17
                 + 5.001 gamma_4_0_0 >= -5
 _2_1_5_0_2#106: - 5.001 s_4_0 + g_0 + g_2 + g_6 + g_14 + g_17
                 + 5.001 gamma_4_0_0 >= -5
 _2_1_5_0_3#107: - 5.001 s_4_0 + g_0 + g_2 + g_6 + g_14 + g_17
                 + 5.001 gamma_4_0_0 >= -5
 _2_1_5_0_4#108: - 5.001 s_4_0 + g_0 + g_2 + g_6 + g_14 + g_17
                 + 5.001 gamma_4_0_0 >= -5
 _2_1_5_0_5#109: - 5.001 s_4_0 + g_0 + g_2 + g_6 + g_14 + g_17
                 + 5.001 gamma_4_0_0 >= -5
 _2_1_5_0_6#110: - 7.001 s_4_0 + g_0 + g_2 + g_6 + g_14 + g_17 - g_25 - g_27
                 + 7.001 gamma_4_0_0 >= -7
 _2_1_5_1_1#111: - 0.001 s_4_0 + 0.001 gamma_4_0_1 >= 0
 _2_1_5_1_2#112: - 0.001 s_4_0 + 0.001 gamma_4_0_1 >= 0
 _2_1_5_1_3#113: - 0.001 s_4_0 + 0.001 gamma_4_0_1 >= 0
 _2_1_5_1_4#114: - 0.001 s_4_0 + 0.001 gamma_4_0_1 >= 0
 _2_1_5_1_5#115: - 4.001 s_4_0 - g_7 - g_22 - g_25 - g_27 + 4.001 gamma_4_0_1
                 >= -4
 _2_1_5_2_1#116: - 0.001 s_4_0 + 0.001 gamma_4_0_2 >= 0
 _2_2_0_0_1#117: - 5.001 s_1_1 - g_6 - g_7 - g_14 - g_17 - g_22
                 + 5.001 gamma_1_1_0 >= -5
 _2_2_0_0_2#118: - 12.001 s_1_1 - g_3 - g_5 - g_12 - g_15 - g_16 - g_18 - g_19
                 - g_20 - g_21 - g_23 - g_29 - g_31 + 12.001 gamma_1_1_0 >= -12
 _2_2_0_0_3#119: - 0.001 s_1_1 + 0.001 gamma_1_1_0 >= 0
 _2_2_0_0_4#120: - 0.001 s_1_1 + 0.001 gamma_1_1_0 >= 0
 _2_2_0_0_5#121: - 0.001 s_1_1 + 0.001 gamma_1_1_0 >= 0
 _2_2_0_0_6#122: - 2.001 s_1_1 - g_25 - g_27 + 2.001 gamma_1_1_0 >= -2
 _2_2_0_1_1#123: - 14.001 s_1_1 - g_6 - g_7 + g_12 - g_14 + g_15 - g_17 + g_18
                 + g_19 + g_20 + g_21 - g_22 + g_23 + g_29 + g_31
                 + 14.001 gamma_1_1_1 >= -14
 _2_2_0_1_2#124: - 18.001 s_1_1 - g_0 - g_1 - g_2 - g_4 - g_8 - g_9 - g_10
                 - g_11 + g_12 + g_15 + g_18 + g_19 + g_20 + g_21 + g_23 + g_29
                 - g_30 + g_31 + 18.001 gamma_1_1_1 >= -18
 _2_2_0_1_3#125: - 9.001 s_1_1 + g_12 + g_15 + g_18 + g_19 + g_20 + g_21 + g_23
                 + g_29 + g_31 + 9.001 gamma_1_1_1 >= -9
 _2_2_0_1_4#126: - 9.001 s_1_1 + g_12 + g_15 + g_18 + g_19 + g_20 + g_21 + g_23
                 + g_29 + g_31 + 9.001 gamma_1_1_1 >= -9
 _2_2_0_1_5#127: - 11.001 s_1_1 + g_12 + g_15 + g_18 + g_19 + g_20 + g_21
                 + g_23 - g_25 - g_27 + g_29 + g_31 + 11.001 gamma_1_1_1 >= -11
 _2_2_1_0_1#128: - 17.001 s_1_0 + g_3 + g_5 - g_6 - g_7 + g_12 - g_14 + g_15
                 + g_16 - g_17 + g_18 + g_19 + g_20 + g_21 - g_22 + g_23 + g_29
                 + g_31 + 17.001 gamma_1_0_0 >= -17
 _2_2_1_0_2#129: - 12.001 s_1_0 + g_3 + g_5 + g_12 + g_15 + g_16 + g_18 + g_19
                 + g_20 + g_21 + g_23 + g_29 + g_31 + 12.001 gamma_1_0_0 >= -12
 _2_2_1_0_3#130: - 12.001 s_1_0 + g_3 + g_5 + g_12 + g_15 + g_16 + g_18 + g_19
                 + g_20 + g_21 + g_23 + g_29 + g_31 + 12.001 gamma_1_0_0 >= -12
 _2_2_1_0_4#131: - 12.001 s_1_0 + g_3 + g_5 + g_12 + g_15 + g_16 + g_18 + g_19
                 + g_20 + g_21 + g_23 + g_29 + g_31 + 12.001 gamma_1_0_0 >= -12
 _2_2_1_0_5#132: - 12.001 s_1_0 + g_3 + g_5 + g_12 + g_15 + g_16 + g_18 + g_19
                 + g_20 + g_21 + g_23 + g_29 + g_31 + 12.001 gamma_1_0_0 >= -12
 _2_2_1_0_6#133: - 14.001 s_1_0 + g_3 + g_5 + g_12 + g_15 + g_16 + g_18 + g_19
                 + g_20 + g_21 + g_23 - g_25 - g_27 + g_29 + g_31
                 + 14.001 gamma_1_0_0 >= -14
 _2_2_1_1_1#134: - 0.001 s_1_0 + 0.001 gamma_1_0_1 >= 0
 _2_3_0_0_1#135: - 13.001 s_0_1 + g_0 + g_2 - g_6 + g_8 + g_9 + g_10 + g_11
                 - g_12 - g_14 - g_17 - g_19 - g_20 + g_30 + 13.001 gamma_0_1_0
                 >= -13
 _2_3_0_0_2#136: - 19.001 s_0_1 + g_0 + g_2 - g_3 - g_5 + g_8 + g_9 + g_10
                 + g_11 - g_15 - g_16 - g_18 - g_21 - g_23 - g_24 - g_26 - g_29
                 + g_30 - g_31 - g_32 + 19.001 gamma_0_1_0 >= -19
 _2_3_0_0_3#137: - 9.001 s_0_1 + g_0 + g_2 + g_8 + g_9 + g_10 + g_11 - g_25
                 - g_27 + g_30 + 9.001 gamma_0_1_0 >= -9
 _2_3_0_1_1#138: - 17.001 s_0_1 + g_0 - g_1 + g_2 - g_4 - g_10 + g_12 + g_15
                 + g_17 + g_18 + g_19 + g_20 + g_21 + g_23 - g_25 - g_27 + g_29
                 + g_31 + 17.001 gamma_0_1_1 >= -17
 _2_3_1_0_1#139: - 13.001 s_0_0 - g_0 - g_2 + g_6 - g_8 - g_9 - g_10 - g_11
                 + g_12 + g_14 + g_17 + g_19 + g_20 - g_30 + 13.001 gamma_0_0_0
                 >= -13
 _2_3_1_0_2#140: - 18.001 s_0_0 - g_3 - g_5 + g_6 + g_12 + g_14 - g_15 - g_16
                 + g_17 - g_18 + g_19 + g_20 - g_21 - g_23 - g_24 - g_26 - g_29
                 - g_31 - g_32 + 18.001 gamma_0_0_0 >= -18
 _2_3_1_0_3#141: - 8.001 s_0_0 + g_6 + g_12 + g_14 + g_17 + g_19 + g_20 - g_25
                 - g_27 + 8.001 gamma_0_0_0 >= -8
 _2_4_0_0_1#142: - 6.001 s_3_5 + g_0 + g_2 + g_9 + g_10 + g_11 + g_30
                 + 6.001 gamma_3_5_0 >= -6
 _2_4_0_0_2#143: - 20.001 s_3_5 + g_0 + g_2 - g_3 - g_5 - g_7 + g_9 + g_10
                 + g_11 - g_15 - g_16 - g_18 - g_21 - g_22 - g_23 - g_24 - g_26
                 - g_29 + g_30 - g_31 - g_32 + 20.001 gamma_3_5_0 >= -20
 _2_4_0_0_3#144: - 6.001 s_3_5 + g_0 + g_2 + g_9 + g_10 + g_11 + g_30
                 + 6.001 gamma_3_5_0 >= -6
 _2_4_0_0_4#145: - 11.001 s_3_5 + g_0 - g_1 + g_2 - g_4 - g_8 + g_9 + g_10
                 + g_11 - g_25 - g_27 + g_30 + 11.001 gamma_3_5_0 >= -11
 _2_4_0_0_5#146: - 9.001 s_3_5 + g_0 + g_2 - g_6 + g_9 + g_10 + g_11 - g_14
                 - g_17 + g_30 + 9.001 gamma_3_5_0 >= -9
 _2_4_0_0_6#147: - 6.001 s_3_5 + g_0 + g_2 + g_9 + g_10 + g_11 + g_30
                 + 6.001 gamma_3_5_0 >= -6
 _2_4_0_1_1#148: - 8.001 s_3_5 + g_0 + g_2 + g_6 + g_9 + g_11 + g_14 + g_17
                 + g_30 + 8.001 gamma_3_5_1 >= -8
 _2_4_0_1_2#149: - 20.001 s_3_5 + g_0 + g_2 - g_3 - g_5 + g_6 + g_9 + g_11
                 + g_14 - g_15 - g_16 + g_17 - g_18 - g_21 - g_23 - g_24 - g_26
                 - g_29 + g_30 - g_31 - g_32 + 20.001 gamma_3_5_1 >= -20
 _2_4_0_1_3#150: - 8.001 s_3_5 + g_0 + g_2 + g_6 + g_9 + g_11 + g_14 + g_17
                 + g_30 + 8.001 gamma_3_5_1 >= -8
 _2_4_0_1_4#151: - 14.001 s_3_5 + g_0 - g_1 + g_2 - g_4 + g_6 - g_8 + g_9
                 - g_10 + g_11 + g_14 + g_17 - g_25 - g_27 + g_30
                 + 14.001 gamma_3_5_1 >= -14
 _2_4_0_1_5#152: - 8.001 s_3_5 + g_0 + g_2 + g_6 + g_9 + g_11 + g_14 + g_17
                 + g_30 + 8.001 gamma_3_5_1 >= -8
 _2_4_0_2_1#153: - 18.001 s_3_5 + g_0 + g_2 + g_3 + g_5 + g_12 + g_15 + g_16
                 + g_17 + g_18 + g_19 + g_20 + g_21 + g_23 + g_24 + g_26 + g_29
                 + g_31 + g_32 + 18.001 gamma_3_5_2 >= -18
 _2_4_0_2_2#154: - 18.001 s_3_5 + g_0 + g_2 + g_3 + g_5 + g_12 + g_15 + g_16
                 + g_17 + g_18 + g_19 + g_20 + g_21 + g_23 + g_24 + g_26 + g_29
                 + g_31 + g_32 + 18.001 gamma_3_5_2 >= -18
 _2_4_0_2_3#155: - 24.001 s_3_5 + g_0 - g_1 + g_2 + g_3 - g_4 + g_5 - g_8
                 - g_10 + g_12 + g_15 + g_16 + g_17 + g_18 + g_19 + g_20 + g_21
                 + g_23 + g_24 - g_25 + g_26 - g_27 + g_29 + g_31 + g_32
                 + 24.001 gamma_3_5_2 >= -24
 _2_4_0_2_4#156: - 18.001 s_3_5 + g_0 + g_2 + g_3 + g_5 + g_12 + g_15 + g_16
                 + g_17 + g_18 + g_19 + g_20 + g_21 + g_23 + g_24 + g_26 + g_29
                 + g_31 + g_32 + 18.001 gamma_3_5_2 >= -18
 _2_4_1_0_1#157: - 6.001 s_3_4 + g_0 + g_2 + g_9 + g_10 + g_11 + g_30
                 + 6.001 gamma_3_4_0 >= -6
 _2_4_1_0_2#158: - 20.001 s_3_4 + g_0 + g_2 - g_3 - g_5 - g_7 + g_9 + g_10
                 + g_11 - g_15 - g_16 - g_18 - g_21 - g_22 - g_23 - g_24 - g_26
                 - g_29 + g_30 - g_31 - g_32 + 20.001 gamma_3_4_0 >= -20
 _2_4_1_0_3#159: - 6.001 s_3_4 + g_0 + g_2 + g_9 + g_10 + g_11 + g_30
                 + 6.001 gamma_3_4_0 >= -6
 _2_4_1_0_4#160: - 11.001 s_3_4 + g_0 - g_1 + g_2 - g_4 - g_8 + g_9 + g_10
                 + g_11 - g_25 - g_27 + g_30 + 11.001 gamma_3_4_0 >= -11
 _2_4_1_0_5#161: - 9.001 s_3_4 + g_0 + g_2 - g_6 + g_9 + g_10 + g_11 - g_14
                 - g_17 + g_30 + 9.001 gamma_3_4_0 >= -9
 _2_4_1_0_6#162: - 6.001 s_3_4 + g_0 + g_2 + g_9 + g_10 + g_11 + g_30
                 + 6.001 gamma_3_4_0 >= -6
 _2_4_1_1_1#163: - 12.001 s_3_4 + g_3 + g_5 + g_15 + g_16 + g_18 + g_21 + g_23
                 + g_24 + g_26 + g_29 + g_31 + g_32 + 12.001 gamma_3_4_1 >= -12
 _2_4_1_1_2#164: - 12.001 s_3_4 + g_3 + g_5 + g_15 + g_16 + g_18 + g_21 + g_23
                 + g_24 + g_26 + g_29 + g_31 + g_32 + 12.001 gamma_3_4_1 >= -12
 _2_4_1_1_3#165: - 18.001 s_3_4 - g_1 + g_3 - g_4 + g_5 - g_8 - g_10 + g_15
                 + g_16 + g_18 + g_21 + g_23 + g_24 - g_25 + g_26 - g_27 + g_29
                 + g_31 + g_32 + 18.001 gamma_3_4_1 >= -18
 _2_4_1_1_4#166: - 20.001 s_3_4 - g_0 - g_2 + g_3 + g_5 - g_6 - g_9 - g_11
                 - g_14 + g_15 + g_16 - g_17 + g_18 + g_21 + g_23 + g_24 + g_26
                 + g_29 - g_30 + g_31 + g_32 + 20.001 gamma_3_4_1 >= -20
 _2_4_1_1_5#167: - 12.001 s_3_4 + g_3 + g_5 + g_15 + g_16 + g_18 + g_21 + g_23
                 + g_24 + g_26 + g_29 + g_31 + g_32 + 12.001 gamma_3_4_1 >= -12
 _2_4_2_0_1#168: - 3.001 s_3_3 + g_6 + g_14 + g_17 + 3.001 gamma_3_3_0 >= -3
 _2_4_2_0_2#169: - 17.001 s_3_3 - g_3 - g_5 + g_6 - g_7 + g_14 - g_15 - g_16
                 + g_17 - g_18 - g_21 - g_22 - g_23 - g_24 - g_26 - g_29 - g_31
                 - g_32 + 17.001 gamma_3_3_0 >= -17
 _2_4_2_0_3#170: - 3.001 s_3_3 + g_6 + g_14 + g_17 + 3.001 gamma_3_3_0 >= -3
 _2_4_2_0_4#171: - 8.001 s_3_3 - g_1 - g_4 + g_6 - g_8 + g_14 + g_17 - g_25
                 - g_27 + 8.001 gamma_3_3_0 >= -8
 _2_4_2_0_5#172: - 9.001 s_3_3 - g_0 - g_2 + g_6 - g_9 - g_10 - g_11 + g_14
                 + g_17 - g_30 + 9.001 gamma_3_3_0 >= -9
 _2_4_2_0_6#173: - 3.001 s_3_3 + g_6 + g_14 + g_17 + 3.001 gamma_3_3_0 >= -3
 _2_4_2_1_1#174: - 6.001 s_3_3 + g_0 + g_2 + g_9 + g_10 + g_11 + g_30
                 + 6.001 gamma_3_3_1 >= -6
 _2_4_2_1_2#175: - 24.001 s_3_3 + g_0 + g_2 - g_3 - g_5 - g_6 + g_9 + g_10
                 + g_11 - g_12 - g_14 - g_15 - g_16 - g_17 - g_18 - g_19 - g_20
                 - g_21 - g_23 - g_24 - g_26 - g_29 + g_30 - g_31 - g_32
                 + 24.001 gamma_3_3_1 >= -24
 _2_4_2_1_3#176: - 6.001 s_3_3 + g_0 + g_2 + g_9 + g_10 + g_11 + g_30
                 + 6.001 gamma_3_3_1 >= -6
 _2_4_2_1_4#177: - 11.001 s_3_3 + g_0 - g_1 + g_2 - g_4 - g_8 + g_9 + g_10
                 + g_11 - g_25 - g_27 + g_30 + 11.001 gamma_3_3_1 >= -11
 _2_4_2_1_5#178: - 6.001 s_3_3 + g_0 + g_2 + g_9 + g_10 + g_11 + g_30
                 + 6.001 gamma_3_3_1 >= -6
 _2_4_2_2_1#179: - 18.001 s_3_3 + g_0 + g_2 + g_3 + g_5 + g_12 + g_15 + g_16
                 + g_17 + g_18 + g_19 + g_20 + g_21 + g_23 + g_24 + g_26 + g_29
                 + g_31 + g_32 + 18.001 gamma_3_3_2 >= -18
 _2_4_2_2_2#180: - 18.001 s_3_3 + g_0 + g_2 + g_3 + g_5 + g_12 + g_15 + g_16
                 + g_17 + g_18 + g_19 + g_20 + g_21 + g_23 + g_24 + g_26 + g_29
                 + g_31 + g_32 + 18.001 gamma_3_3_2 >= -18
 _2_4_2_2_3#181: - 24.001 s_3_3 + g_0 - g_1 + g_2 + g_3 - g_4 + g_5 - g_8
                 - g_10 + g_12 + g_15 + g_16 + g_17 + g_18 + g_19 + g_20 + g_21
                 + g_23 + g_24 - g_25 + g_26 - g_27 + g_29 + g_31 + g_32
                 + 24.001 gamma_3_3_2 >= -24
 _2_4_2_2_4#182: - 18.001 s_3_3 + g_0 + g_2 + g_3 + g_5 + g_12 + g_15 + g_16
                 + g_17 + g_18 + g_19 + g_20 + g_21 + g_23 + g_24 + g_26 + g_29
                 + g_31 + g_32 + 18.001 gamma_3_3_2 >= -18
 _2_4_3_0_1#183: - 3.001 s_3_2 + g_6 + g_14 + g_17 + 3.001 gamma_3_2_0 >= -3
 _2_4_3_0_2#184: - 17.001 s_3_2 - g_3 - g_5 + g_6 - g_7 + g_14 - g_15 - g_16
                 + g_17 - g_18 - g_21 - g_22 - g_23 - g_24 - g_26 - g_29 - g_31
                 - g_32 + 17.001 gamma_3_2_0 >= -17
 _2_4_3_0_3#185: - 3.001 s_3_2 + g_6 + g_14 + g_17 + 3.001 gamma_3_2_0 >= -3
 _2_4_3_0_4#186: - 8.001 s_3_2 - g_1 - g_4 + g_6 - g_8 + g_14 + g_17 - g_25
                 - g_27 + 8.001 gamma_3_2_0 >= -8
 _2_4_3_0_5#187: - 9.001 s_3_2 - g_0 - g_2 + g_6 - g_9 - g_10 - g_11 + g_14
                 + g_17 - g_30 + 9.001 gamma_3_2_0 >= -9
 _2_4_3_0_6#188: - 3.001 s_3_2 + g_6 + g_14 + g_17 + 3.001 gamma_3_2_0 >= -3
 _2_4_3_1_1#189: - 18.001 s_3_2 + g_3 + g_5 + g_6 + g_12 + g_14 + g_15 + g_16
                 + g_17 + g_18 + g_19 + g_20 + g_21 + g_23 + g_24 + g_26 + g_29
                 + g_31 + g_32 + 18.001 gamma_3_2_1 >= -18
 _2_4_3_1_2#190: - 18.001 s_3_2 + g_3 + g_5 + g_6 + g_12 + g_14 + g_15 + g_16
                 + g_17 + g_18 + g_19 + g_20 + g_21 + g_23 + g_24 + g_26 + g_29
                 + g_31 + g_32 + 18.001 gamma_3_2_1 >= -18
 _2_4_3_1_3#191: - 23.001 s_3_2 - g_1 + g_3 - g_4 + g_5 + g_6 - g_8 + g_12
                 + g_14 + g_15 + g_16 + g_17 + g_18 + g_19 + g_20 + g_21 + g_23
                 + g_24 - g_25 + g_26 - g_27 + g_29 + g_31 + g_32
                 + 23.001 gamma_3_2_1 >= -23
 _2_4_3_1_4#192: - 24.001 s_3_2 - g_0 - g_2 + g_3 + g_5 + g_6 - g_9 - g_10
                 - g_11 + g_12 + g_14 + g_15 + g_16 + g_17 + g_18 + g_19 + g_20
                 + g_21 + g_23 + g_24 + g_26 + g_29 - g_30 + g_31 + g_32
                 + 24.001 gamma_3_2_1 >= -24
 _2_4_3_1_5#193: - 18.001 s_3_2 + g_3 + g_5 + g_6 + g_12 + g_14 + g_15 + g_16
                 + g_17 + g_18 + g_19 + g_20 + g_21 + g_23 + g_24 + g_26 + g_29
                 + g_31 + g_32 + 18.001 gamma_3_2_1 >= -18
 _2_4_4_0_1#194: - 14.001 s_3_1 + g_3 + g_5 + g_7 + g_15 + g_16 + g_18 + g_21
                 + g_22 + g_23 + g_24 + g_26 + g_29 + g_31 + g_32
                 + 14.001 gamma_3_1_0 >= -14
 _2_4_4_0_2#195: - 14.001 s_3_1 + g_3 + g_5 + g_7 + g_15 + g_16 + g_18 + g_21
                 + g_22 + g_23 + g_24 + g_26 + g_29 + g_31 + g_32
                 + 14.001 gamma_3_1_0 >= -14
 _2_4_4_0_3#196: - 19.001 s_3_1 - g_1 + g_3 - g_4 + g_5 + g_7 - g_8 + g_15
                 + g_16 + g_18 + g_21 + g_22 + g_23 + g_24 - g_25 + g_26 - g_27
                 + g_29 + g_31 + g_32 + 19.001 gamma_3_1_0 >= -19
 _2_4_4_0_4#197: - 17.001 s_3_1 + g_3 + g_5 - g_6 + g_7 - g_14 + g_15 + g_16
                 - g_17 + g_18 + g_21 + g_22 + g_23 + g_24 + g_26 + g_29 + g_31
                 + g_32 + 17.001 gamma_3_1_0 >= -17
 _2_4_4_0_5#198: - 20.001 s_3_1 - g_0 - g_2 + g_3 + g_5 + g_7 - g_9 - g_10
                 - g_11 + g_15 + g_16 + g_18 + g_21 + g_22 + g_23 + g_24 + g_26
                 + g_29 - g_30 + g_31 + g_32 + 20.001 gamma_3_1_0 >= -20
 _2_4_4_0_6#199: - 14.001 s_3_1 + g_3 + g_5 + g_7 + g_15 + g_16 + g_18 + g_21
                 + g_22 + g_23 + g_24 + g_26 + g_29 + g_31 + g_32
                 + 14.001 gamma_3_1_0 >= -14
 _2_4_4_1_1#200: - 5.001 s_3_1 + g_8 + g_9 + g_10 + g_11 + g_30
                 + 5.001 gamma_3_1_1 >= -5
 _2_4_4_1_2#201: - 5.001 s_3_1 + g_8 + g_9 + g_10 + g_11 + g_30
                 + 5.001 gamma_3_1_1 >= -5
 _2_4_4_1_3#202: - 9.001 s_3_1 - g_1 - g_4 + g_8 + g_9 + g_10 + g_11 - g_25
                 - g_27 + g_30 + 9.001 gamma_3_1_1 >= -9
 _2_4_4_1_4#203: - 19.001 s_3_1 - g_0 - g_2 - g_6 + g_8 + g_9 + g_10 + g_11
                 - g_12 - g_14 - g_15 - g_17 - g_18 - g_19 - g_20 - g_21 - g_23
                 - g_29 + g_30 - g_31 + 19.001 gamma_3_1_1 >= -19
 _2_4_4_1_5#204: - 5.001 s_3_1 + g_8 + g_9 + g_10 + g_11 + g_30
                 + 5.001 gamma_3_1_1 >= -5
 _2_4_5_0_1#205: - 14.001 s_3_0 + g_3 + g_5 + g_7 + g_15 + g_16 + g_18 + g_21
                 + g_22 + g_23 + g_24 + g_26 + g_29 + g_31 + g_32
                 + 14.001 gamma_3_0_0 >= -14
 _2_4_5_0_2#206: - 14.001 s_3_0 + g_3 + g_5 + g_7 + g_15 + g_16 + g_18 + g_21
                 + g_22 + g_23 + g_24 + g_26 + g_29 + g_31 + g_32
                 + 14.001 gamma_3_0_0 >= -14
 _2_4_5_0_3#207: - 19.001 s_3_0 - g_1 + g_3 - g_4 + g_5 + g_7 - g_8 + g_15
                 + g_16 + g_18 + g_21 + g_22 + g_23 + g_24 - g_25 + g_26 - g_27
                 + g_29 + g_31 + g_32 + 19.001 gamma_3_0_0 >= -19
 _2_4_5_0_4#208: - 17.001 s_3_0 + g_3 + g_5 - g_6 + g_7 - g_14 + g_15 + g_16
                 - g_17 + g_18 + g_21 + g_22 + g_23 + g_24 + g_26 + g_29 + g_31
                 + g_32 + 17.001 gamma_3_0_0 >= -17
 _2_4_5_0_5#209: - 20.001 s_3_0 - g_0 - g_2 + g_3 + g_5 + g_7 - g_9 - g_10
                 - g_11 + g_15 + g_16 + g_18 + g_21 + g_22 + g_23 + g_24 + g_26
                 + g_29 - g_30 + g_31 + g_32 + 20.001 gamma_3_0_0 >= -20
 _2_4_5_0_6#210: - 14.001 s_3_0 + g_3 + g_5 + g_7 + g_15 + g_16 + g_18 + g_21
                 + g_22 + g_23 + g_24 + g_26 + g_29 + g_31 + g_32
                 + 14.001 gamma_3_0_0 >= -14
 _2_4_5_1_1#211: - 14.001 s_3_0 + g_0 + g_2 + g_6 + g_12 + g_14 + g_15 + g_17
                 + g_18 + g_19 + g_20 + g_21 + g_23 + g_29 + g_31
                 + 14.001 gamma_3_0_1 >= -14
 _2_4_5_1_2#212: - 14.001 s_3_0 + g_0 + g_2 + g_6 + g_12 + g_14 + g_15 + g_17
                 + g_18 + g_19 + g_20 + g_21 + g_23 + g_29 + g_31
                 + 14.001 gamma_3_0_1 >= -14
 _2_4_5_1_3#213: - 18.001 s_3_0 + g_0 - g_1 + g_2 - g_4 + g_6 + g_12 + g_14
                 + g_15 + g_17 + g_18 + g_19 + g_20 + g_21 + g_23 - g_25 - g_27
                 + g_29 + g_31 + 18.001 gamma_3_0_1 >= -18
 _2_4_5_1_4#214: - 19.001 s_3_0 + g_0 + g_2 + g_6 - g_8 - g_9 - g_10 - g_11
                 + g_12 + g_14 + g_15 + g_17 + g_18 + g_19 + g_20 + g_21 + g_23
                 + g_29 - g_30 + g_31 + 19.001 gamma_3_0_1 >= -19
 _2_4_5_1_5#215: - 14.001 s_3_0 + g_0 + g_2 + g_6 + g_12 + g_14 + g_15 + g_17
                 + g_18 + g_19 + g_20 + g_21 + g_23 + g_29 + g_31
                 + 14.001 gamma_3_0_1 >= -14
 c217#216:       - g_0 + a_0 >= 0
 c218#217:       g_0 + a_0 >= 0
 c219#218:       - g_1 + a_1 >= 0
 c220#219:       g_1 + a_1 >= 0
 c221#220:       - g_2 + a_2 >= 0
 c222#221:       g_2 + a_2 >= 0
 c223#222:       - g_3 + a_3 >= 0
 c224#223:       g_3 + a_3 >= 0
 c225#224:       - g_4 + a_4 >= 0
 c226#225:       g_4 + a_4 >= 0
 c227#226:       - g_5 + a_5 >= 0
 c228#227:       g_5 + a_5 >= 0
 c229#228:       - g_6 + a_6 >= 0
 c230#229:       g_6 + a_6 >= 0
 c231#230:       - g_7 + a_7 >= 0
 c232#231:       g_7 + a_7 >= 0
 c233#232:       - g_8 + a_8 >= 0
 c234#233:       g_8 + a_8 >= 0
 c235#234:       - g_9 + a_9 >= 0
 c236#235:       g_9 + a_9 >= 0
 c237#236:       - g_10 + a_10 >= 0
 c238#237:       g_10 + a_10 >= 0
 c239#238:       - g_11 + a_11 >= 0
 c240#239:       g_11 + a_11 >= 0
 c241#240:       - g_12 + a_12 >= 0
 c242#241:       g_12 + a_12 >= 0
 c243#242:       - g_13 + a_13 >= 0
 c244#243:       g_13 + a_13 >= 0
 c245#244:       - g_14 + a_14 >= 0
 c246#245:       g_14 + a_14 >= 0
 c247#246:       - g_15 + a_15 >= 0
 c248#247:       g_15 + a_15 >= 0
 c249#248:       - g_16 + a_16 >= 0
 c250#249:       g_16 + a_16 >= 0
 c251#250:       - g_17 + a_17 >= 0
 c252#251:       g_17 + a_17 >= 0
 c253#252:       - g_18 + a_18 >= 0
 c254#253:       g_18 + a_18 >= 0
 c255#254:       - g_19 + a_19 >= 0
 c256#255:       g_19 + a_19 >= 0
 c257#256:       - g_20 + a_20 >= 0
 c258#257:       g_20 + a_20 >= 0
 c259#258:       - g_21 + a_21 >= 0
 c260#259:       g_21 + a_21 >= 0
 c261#260:       - g_22 + a_22 >= 0
 c262#261:       g_22 + a_22 >= 0
 c263#262:       - g_23 + a_23 >= 0
 c264#263:       g_23 + a_23 >= 0
 c265#264:       - g_24 + a_24 >= 0
 c266#265:       g_24 + a_24 >= 0
 c267#266:       - g_25 + a_25 >= 0
 c268#267:       g_25 + a_25 >= 0
 c269#268:       - g_26 + a_26 >= 0
 c270#269:       g_26 + a_26 >= 0
 c271#270:       - g_27 + a_27 >= 0
 c272#271:       g_27 + a_27 >= 0
 c273#272:       - g_28 + a_28 >= 0
 c274#273:       g_28 + a_28 >= 0
 c275#274:       - g_29 + a_29 >= 0
 c276#275:       g_29 + a_29 >= 0
 c277#276:       - g_30 + a_30 >= 0
 c278#277:       g_30 + a_30 >= 0
 c279#278:       - g_31 + a_31 >= 0
 c280#279:       g_31 + a_31 >= 0
 c281#280:       - g_32 + a_32 >= 0
 c282#281:       g_32 + a_32 >= 0
Bounds
 0 <= s_2_5 <= 1
 0 <= s_2_4 <= 1
 0 <= s_2_3 <= 1
 0 <= s_2_2 <= 1
 0 <= s_2_1 <= 1
 0 <= s_2_0 <= 1
 0 <= s_4_5 <= 1
 0 <= s_4_4 <= 1
 0 <= s_4_3 <= 1
 0 <= s_4_2 <= 1
 0 <= s_4_1 <= 1
 0 <= s_4_0 <= 1
 0 <= s_1_1 <= 1
 0 <= s_1_0 <= 1
 0 <= s_0_1 <= 1
 0 <= s_0_0 <= 1
 0 <= s_3_5 <= 1
 0 <= s_3_4 <= 1
 0 <= s_3_3 <= 1
 0 <= s_3_2 <= 1
 0 <= s_3_1 <= 1
 0 <= s_3_0 <= 1
-1 <= g_0 <= 1
-1 <= g_1 <= 1
-1 <= g_2 <= 1
-1 <= g_3 <= 1
-1 <= g_4 <= 1
-1 <= g_5 <= 1
-1 <= g_6 <= 1
-1 <= g_7 <= 1
-1 <= g_8 <= 1
-1 <= g_9 <= 1
-1 <= g_10 <= 1
-1 <= g_11 <= 1
-1 <= g_12 <= 1
-1 <= g_13 <= 1
-1 <= g_14 <= 1
-1 <= g_15 <= 1
-1 <= g_16 <= 1
-1 <= g_17 <= 1
-1 <= g_18 <= 1
-1 <= g_19 <= 1
-1 <= g_20 <= 1
-1 <= g_21 <= 1
-1 <= g_22 <= 1
-1 <= g_23 <= 1
-1 <= g_24 <= 1
-1 <= g_25 <= 1
-1 <= g_26 <= 1
-1 <= g_27 <= 1
-1 <= g_28 <= 1
-1 <= g_29 <= 1
-1 <= g_30 <= 1
-1 <= g_31 <= 1
-1 <= g_32 <= 1
 0 <= gamma_2_5_0 <= 1
 0 <= gamma_2_5_1 <= 1
 0 <= gamma_2_4_0 <= 1
 0 <= gamma_2_4_1 <= 1
 0 <= gamma_2_3_0 <= 1
 0 <= gamma_2_3_1 <= 1
 0 <= gamma_2_2_0 <= 1
 0 <= gamma_2_2_1 <= 1
 0 <= gamma_2_1_0 <= 1
 0 <= gamma_2_1_1 <= 1
 0 <= gamma_2_0_0 <= 1
 0 <= gamma_2_0_1 <= 1
 0 <= gamma_4_5_0 <= 1
 0 <= gamma_4_5_1 <= 1
 0 <= gamma_4_5_2 <= 1
 0 <= gamma_4_4_0 <= 1
 0 <= gamma_4_4_1 <= 1
 0 <= gamma_4_4_2 <= 1
 0 <= gamma_4_3_0 <= 1
 0 <= gamma_4_3_1 <= 1
 0 <= gamma_4_3_2 <= 1
 0 <= gamma_4_2_0 <= 1
 0 <= gamma_4_2_1 <= 1
 0 <= gamma_4_2_2 <= 1
 0 <= gamma_4_1_0 <= 1
 0 <= gamma_4_1_1 <= 1
 0 <= gamma_4_1_2 <= 1
 0 <= gamma_4_0_0 <= 1
 0 <= gamma_4_0_1 <= 1
 0 <= gamma_4_0_2 <= 1
 0 <= gamma_1_1_0 <= 1
 0 <= gamma_1_1_1 <= 1
 0 <= gamma_1_0_0 <= 1
 0 <= gamma_1_0_1 <= 1
 0 <= gamma_0_1_0 <= 1
 0 <= gamma_0_1_1 <= 1
 0 <= gamma_0_0_0 <= 1
 0 <= gamma_3_5_0 <= 1
 0 <= gamma_3_5_1 <= 1
 0 <= gamma_3_5_2 <= 1
 0 <= gamma_3_4_0 <= 1
 0 <= gamma_3_4_1 <= 1
 0 <= gamma_3_3_0 <= 1
 0 <= gamma_3_3_1 <= 1
 0 <= gamma_3_3_2 <= 1
 0 <= gamma_3_2_0 <= 1
 0 <= gamma_3_2_1 <= 1
 0 <= gamma_3_1_0 <= 1
 0 <= gamma_3_1_1 <= 1
 0 <= gamma_3_0_0 <= 1
 0 <= gamma_3_0_1 <= 1
 0 <= gamma_2_5_2 <= 1
 0 <= gamma_2_4_2 <= 1
 0 <= gamma_2_3_2 <= 1
 0 <= gamma_2_2_2 <= 1
 0 <= gamma_2_1_2 <= 1
 0 <= gamma_2_0_2 <= 1
 0 <= gamma_0_0_1 <= 1
 0 <= gamma_3_4_2 <= 1
 0 <= gamma_3_2_2 <= 1
 0 <= gamma_3_1_2 <= 1
 0 <= gamma_3_0_2 <= 1
 0 <= a_0 <= 1
 0 <= a_1 <= 1
 0 <= a_2 <= 1
 0 <= a_3 <= 1
 0 <= a_4 <= 1
 0 <= a_5 <= 1
 0 <= a_6 <= 1
 0 <= a_7 <= 1
 0 <= a_8 <= 1
 0 <= a_9 <= 1
 0 <= a_10 <= 1
 0 <= a_11 <= 1
 0 <= a_12 <= 1
 0 <= a_13 <= 1
 0 <= a_14 <= 1
 0 <= a_15 <= 1
 0 <= a_16 <= 1
 0 <= a_17 <= 1
 0 <= a_18 <= 1
 0 <= a_19 <= 1
 0 <= a_20 <= 1
 0 <= a_21 <= 1
 0 <= a_22 <= 1
 0 <= a_23 <= 1
 0 <= a_24 <= 1
 0 <= a_25 <= 1
 0 <= a_26 <= 1
 0 <= a_27 <= 1
 0 <= a_28 <= 1
 0 <= a_29 <= 1
 0 <= a_30 <= 1
 0 <= a_31 <= 1
 0 <= a_32 <= 1
Generals
 s_2_5  s_2_4  s_2_3  s_2_2  s_2_1  s_2_0  s_4_5  s_4_4  s_4_3  s_4_2  s_4_1 
 s_4_0  s_1_1  s_1_0  s_0_1  s_0_0  s_3_5  s_3_4  s_3_3  s_3_2  s_3_1  s_3_0 
 gamma_2_5_0  gamma_2_5_1  gamma_2_4_0  gamma_2_4_1  gamma_2_3_0  gamma_2_3_1 
 gamma_2_2_0  gamma_2_2_1  gamma_2_1_0  gamma_2_1_1  gamma_2_0_0  gamma_2_0_1 
 gamma_4_5_0  gamma_4_5_1  gamma_4_5_2  gamma_4_4_0  gamma_4_4_1  gamma_4_4_2 
 gamma_4_3_0  gamma_4_3_1  gamma_4_3_2  gamma_4_2_0  gamma_4_2_1  gamma_4_2_2 
 gamma_4_1_0  gamma_4_1_1  gamma_4_1_2  gamma_4_0_0  gamma_4_0_1  gamma_4_0_2 
 gamma_1_1_0  gamma_1_1_1  gamma_1_0_0  gamma_1_0_1  gamma_0_1_0  gamma_0_1_1 
 gamma_0_0_0  gamma_3_5_0  gamma_3_5_1  gamma_3_5_2  gamma_3_4_0  gamma_3_4_1 
 gamma_3_3_0  gamma_3_3_1  gamma_3_3_2  gamma_3_2_0  gamma_3_2_1  gamma_3_1_0 
 gamma_3_1_1  gamma_3_0_0  gamma_3_0_1  gamma_2_5_2  gamma_2_4_2  gamma_2_3_2 
 gamma_2_2_2  gamma_2_1_2  gamma_2_0_2  gamma_0_0_1  gamma_3_4_2  gamma_3_2_2 
 gamma_3_1_2  gamma_3_0_2  a_0  a_1  a_2  a_3  a_4  a_5  a_6  a_7  a_8  a_9 
 a_10  a_11  a_12  a_13  a_14  a_15  a_16  a_17  a_18  a_19  a_20  a_21  a_22 
 a_23  a_24  a_25  a_26  a_27  a_28  a_29  a_30  a_31  a_32 
End
